unsat
(define-fun skel ((n238 Bool) (n255 Bool) (i27 Bool)) Bool (and (or (not n238) (not n255)) i27))
0.46user 0.00system 0:00.46elapsed 99%CPU (0avgtext+0avgdata 29404maxresident)k
8inputs+8outputs (0major+2049minor)pagefaults 0swaps
